tsp_instances/TSP20/instance62.tsp
NODE_COORD_SECTION
0 33 10
1 24 135
2 50 137
3 35 197
4 189 168
5 82 118
6 153 62
7 136 115
8 192 37
9 54 84
10 162 23
11 168 175
12 161 173
13 183 153
14 62 199
15 58 194
16 144 140
17 65 165
18 54 157
19 196 76
