tsp_instances/TSP20/instance62.opt.tour
TOUR_SECTION
1
7
11
9
20
14
5
12
13
17
8
6
3
19
18
15
16
4
2
10
-1